(set-logic QF_UF)
(declare-fun A0 () Bool)
(declare-fun A1 () Bool)
(declare-fun A2 () Bool)
(declare-fun A3 () Bool)
(declare-fun A4 () Bool)
(declare-fun A5 () Bool)
(declare-fun A6 () Bool)
(declare-fun A7 () Bool)
(declare-fun A8 () Bool)
(declare-fun A9 () Bool)
(declare-fun A10 () Bool)
(declare-fun A11 () Bool)
(declare-fun A12 () Bool)
(declare-fun A13 () Bool)
(declare-fun A14 () Bool)
(declare-fun A15 () Bool)
(declare-fun A16 () Bool)
(declare-fun A17 () Bool)
(declare-fun A18 () Bool)
(declare-fun A19 () Bool)
(declare-fun A20 () Bool)
(declare-fun A21 () Bool)
(declare-fun A22 () Bool)
(declare-fun A23 () Bool)
(declare-fun A24 () Bool)
(assert (let ((.def_0 (not A14))) (let ((.def_1 (or A21 .def_0))) (let ((.def_2 (or A22 A17))) (let ((.def_3 (or .def_2 .def_1))) (let ((.def_4 (not .def_3))) (let ((.def_5 (not A8))) (let ((.def_6 (not A13))) (let ((.def_7 (and .def_6 .def_5))) (let ((.def_8 (not .def_7))) (let ((.def_9 (not A1))) (let ((.def_10 (and .def_9 A9))) (let ((.def_11 (not .def_10))) (let ((.def_12 (and .def_11 .def_8))) (let ((.def_13 (not .def_12))) (let ((.def_14 (or .def_13 .def_4))) (let ((.def_15 (and A12 A18))) (let ((.def_16 (not A9))) (let ((.def_17 (= A24 .def_16))) (let ((.def_18 (not .def_17))) (let ((.def_19 (or .def_18 .def_15))) (let ((.def_20 (not A15))) (let ((.def_21 (or .def_20 A0))) (let ((.def_22 (and A8 A19))) (let ((.def_23 (and .def_22 .def_21))) (let ((.def_24 (or .def_23 .def_19))) (let ((.def_25 (not .def_24))) (let ((.def_26 (or .def_25 .def_14))) (let ((.def_27 (not A16))) (let ((.def_28 (not A0))) (let ((.def_29 (and .def_28 .def_27))) (let ((.def_30 (and A8 A22))) (let ((.def_31 (and .def_30 .def_29))) (let ((.def_32 (not A5))) (let ((.def_33 (and .def_32 A4))) (let ((.def_34 (not .def_33))) (let ((.def_35 (= .def_0 A14))) (let ((.def_36 (and .def_35 .def_34))) (let ((.def_37 (or .def_36 .def_31))) (let ((.def_38 (not .def_37))) (let ((.def_39 (or .def_27 A0))) (let ((.def_40 (not A17))) (let ((.def_41 (or A3 .def_40))) (let ((.def_42 (or .def_41 .def_39))) (let ((.def_43 (not .def_42))) (let ((.def_44 (not A21))) (let ((.def_45 (= A18 .def_44))) (let ((.def_46 (not A4))) (let ((.def_47 (and A19 .def_46))) (let ((.def_48 (not .def_47))) (let ((.def_49 (and .def_48 .def_45))) (let ((.def_50 (and .def_49 .def_43))) (let ((.def_51 (not .def_50))) (let ((.def_52 (and .def_51 .def_38))) (let ((.def_53 (or .def_52 .def_26))) (let ((.def_54 (not .def_53))) (let ((.def_55 (and A9 A21))) (let ((.def_56 (not A24))) (let ((.def_57 (or .def_56 .def_6))) (let ((.def_58 (not .def_57))) (let ((.def_59 (or .def_58 .def_55))) (let ((.def_60 (not .def_59))) (let ((.def_61 (or A17 .def_6))) (let ((.def_62 (not A11))) (let ((.def_63 (and .def_62 A13))) (let ((.def_64 (not .def_63))) (let ((.def_65 (and .def_64 .def_61))) (let ((.def_66 (not .def_65))) (let ((.def_67 (and .def_66 .def_60))) (let ((.def_68 (not .def_67))) (let ((.def_69 (not A3))) (let ((.def_70 (or .def_69 .def_9))) (let ((.def_71 (and A17 .def_27))) (let ((.def_72 (and .def_71 .def_70))) (let ((.def_73 (not .def_72))) (let ((.def_74 (and A0 A18))) (let ((.def_75 (and A24 A3))) (let ((.def_76 (and .def_75 .def_74))) (let ((.def_77 (not .def_76))) (let ((.def_78 (or .def_77 .def_73))) (let ((.def_79 (not .def_78))) (let ((.def_80 (= .def_79 .def_68))) (let ((.def_81 (not .def_80))) (let ((.def_82 (not A22))) (let ((.def_83 (not A19))) (let ((.def_84 (or .def_83 .def_82))) (let ((.def_85 (and .def_82 A10))) (let ((.def_86 (or .def_85 .def_84))) (let ((.def_87 (not A7))) (let ((.def_88 (and A4 .def_87))) (let ((.def_89 (not .def_88))) (let ((.def_90 (or A14 A19))) (let ((.def_91 (not .def_90))) (let ((.def_92 (or .def_91 .def_89))) (let ((.def_93 (not .def_92))) (let ((.def_94 (and .def_93 .def_86))) (let ((.def_95 (not .def_94))) (let ((.def_96 (or .def_5 A8))) (let ((.def_97 (not A18))) (let ((.def_98 (or .def_97 A15))) (let ((.def_99 (and .def_98 .def_96))) (let ((.def_100 (= .def_5 A22))) (let ((.def_101 (not .def_100))) (let ((.def_102 (and A16 .def_56))) (let ((.def_103 (not .def_102))) (let ((.def_104 (and .def_103 .def_101))) (let ((.def_105 (not .def_104))) (let ((.def_106 (or .def_105 .def_99))) (let ((.def_107 (not .def_106))) (let ((.def_108 (and .def_107 .def_95))) (let ((.def_109 (or .def_108 .def_81))) (let ((.def_110 (and .def_109 .def_54))) (let ((.def_111 (and A2 .def_27))) (let ((.def_112 (or A1 .def_6))) (let ((.def_113 (or .def_112 .def_111))) (let ((.def_114 (not .def_113))) (let ((.def_115 (or .def_44 A6))) (let ((.def_116 (and A11 .def_87))) (let ((.def_117 (not .def_116))) (let ((.def_118 (or .def_117 .def_115))) (let ((.def_119 (or .def_118 .def_114))) (let ((.def_120 (and .def_69 A21))) (let ((.def_121 (not .def_120))) (let ((.def_122 (or A15 .def_9))) (let ((.def_123 (and .def_122 .def_121))) (let ((.def_124 (not A23))) (let ((.def_125 (= .def_124 .def_46))) (let ((.def_126 (and A16 .def_32))) (let ((.def_127 (not .def_126))) (let ((.def_128 (and .def_127 .def_125))) (let ((.def_129 (not .def_128))) (let ((.def_130 (and .def_129 .def_123))) (let ((.def_131 (not .def_130))) (let ((.def_132 (and .def_131 .def_119))) (let ((.def_133 (not .def_132))) (let ((.def_134 (= A1 .def_0))) (let ((.def_135 (and .def_70 .def_134))) (let ((.def_136 (or .def_32 .def_44))) (let ((.def_137 (not .def_136))) (let ((.def_138 (and .def_97 .def_5))) (let ((.def_139 (or .def_138 .def_137))) (let ((.def_140 (not .def_139))) (let ((.def_141 (and .def_140 .def_135))) (let ((.def_142 (not .def_141))) (let ((.def_143 (or A10 A18))) (let ((.def_144 (not .def_143))) (let ((.def_145 (not A12))) (let ((.def_146 (= .def_145 .def_0))) (let ((.def_147 (and .def_146 .def_144))) (let ((.def_148 (not A6))) (let ((.def_149 (= .def_148 A22))) (let ((.def_150 (not .def_149))) (let ((.def_151 (and A12 .def_62))) (let ((.def_152 (and .def_151 .def_150))) (let ((.def_153 (and .def_152 .def_147))) (let ((.def_154 (and .def_153 .def_142))) (let ((.def_155 (and .def_154 .def_133))) (let ((.def_156 (not .def_155))) (let ((.def_157 (or .def_6 .def_46))) (let ((.def_158 (not .def_157))) (let ((.def_159 (and .def_6 A3))) (let ((.def_160 (not .def_159))) (let ((.def_161 (and .def_160 .def_158))) (let ((.def_162 (not .def_161))) (let ((.def_163 (and .def_5 A21))) (let ((.def_164 (not .def_163))) (let ((.def_165 (and .def_28 A23))) (let ((.def_166 (not .def_165))) (let ((.def_167 (and .def_166 .def_164))) (let ((.def_168 (and .def_167 .def_162))) (let ((.def_169 (and A24 A10))) (let ((.def_170 (not .def_169))) (let ((.def_171 (and .def_145 A18))) (let ((.def_172 (or .def_171 .def_170))) (let ((.def_173 (and A13 A14))) (let ((.def_174 (not .def_173))) (let ((.def_175 (and A2 .def_87))) (let ((.def_176 (and .def_175 .def_174))) (let ((.def_177 (not .def_176))) (let ((.def_178 (or .def_177 .def_172))) (let ((.def_179 (and .def_178 .def_168))) (let ((.def_180 (and .def_5 .def_62))) (let ((.def_181 (or .def_97 .def_0))) (let ((.def_182 (not .def_181))) (let ((.def_183 (and .def_182 .def_180))) (let ((.def_184 (or .def_6 .def_124))) (let ((.def_185 (not .def_184))) (let ((.def_186 (and A16 .def_27))) (let ((.def_187 (not .def_186))) (let ((.def_188 (and .def_187 .def_185))) (let ((.def_189 (not .def_188))) (let ((.def_190 (or .def_189 .def_183))) (let ((.def_191 (not .def_190))) (let ((.def_192 (and A19 A5))) (let ((.def_193 (and A5 .def_6))) (let ((.def_194 (or .def_193 .def_192))) (let ((.def_195 (and .def_27 .def_16))) (let ((.def_196 (and A1 A24))) (let ((.def_197 (or .def_196 .def_195))) (let ((.def_198 (not .def_197))) (let ((.def_199 (or .def_198 .def_194))) (let ((.def_200 (or .def_199 .def_191))) (let ((.def_201 (or .def_200 .def_179))) (let ((.def_202 (and .def_201 .def_156))) (let ((.def_203 (or .def_202 .def_110))) (let ((.def_204 (not .def_203))) (let ((.def_205 (not A10))) (let ((.def_206 (not A2))) (let ((.def_207 (and .def_206 .def_205))) (let ((.def_208 (not .def_207))) (let ((.def_209 (and A0 A22))) (let ((.def_210 (not .def_209))) (let ((.def_211 (and .def_210 .def_208))) (let ((.def_212 (or A1 A20))) (let ((.def_213 (not .def_212))) (let ((.def_214 (and .def_148 .def_0))) (let ((.def_215 (not .def_214))) (let ((.def_216 (or .def_215 .def_213))) (let ((.def_217 (not .def_216))) (let ((.def_218 (and .def_217 .def_211))) (let ((.def_219 (or A13 .def_46))) (let ((.def_220 (not .def_219))) (let ((.def_221 (= A5 A14))) (let ((.def_222 (not .def_221))) (let ((.def_223 (or .def_222 .def_220))) (let ((.def_224 (not A20))) (let ((.def_225 (or A21 .def_224))) (let ((.def_226 (and .def_6 A17))) (let ((.def_227 (not .def_226))) (let ((.def_228 (or .def_227 .def_225))) (let ((.def_229 (not .def_228))) (let ((.def_230 (or .def_229 .def_223))) (let ((.def_231 (or .def_230 .def_218))) (let ((.def_232 (and A22 A23))) (let ((.def_233 (or A16 A3))) (let ((.def_234 (and .def_233 .def_232))) (let ((.def_235 (= .def_16 A3))) (let ((.def_236 (and .def_56 A5))) (let ((.def_237 (not .def_236))) (let ((.def_238 (and .def_237 .def_235))) (let ((.def_239 (and .def_238 .def_234))) (let ((.def_240 (or A21 A19))) (let ((.def_241 (not .def_240))) (let ((.def_242 (and .def_16 .def_16))) (let ((.def_243 (not .def_242))) (let ((.def_244 (= .def_243 .def_241))) (let ((.def_245 (not .def_244))) (let ((.def_246 (or A4 A0))) (let ((.def_247 (not .def_246))) (let ((.def_248 (or A20 .def_44))) (let ((.def_249 (or .def_248 .def_247))) (let ((.def_250 (= .def_249 .def_245))) (let ((.def_251 (not .def_250))) (let ((.def_252 (or .def_251 .def_239))) (let ((.def_253 (not .def_252))) (let ((.def_254 (or .def_253 .def_231))) (let ((.def_255 (not .def_254))) (let ((.def_256 (or .def_87 A8))) (let ((.def_257 (and A13 A24))) (let ((.def_258 (not .def_257))) (let ((.def_259 (= .def_258 .def_256))) (let ((.def_260 (not .def_259))) (let ((.def_261 (or A20 A19))) (let ((.def_262 (not .def_261))) (let ((.def_263 (or .def_40 .def_56))) (let ((.def_264 (or .def_263 .def_262))) (let ((.def_265 (or .def_264 .def_260))) (let ((.def_266 (or .def_206 A16))) (let ((.def_267 (or A17 A9))) (let ((.def_268 (or .def_267 .def_266))) (let ((.def_269 (and A2 .def_32))) (let ((.def_270 (not .def_269))) (let ((.def_271 (and A6 .def_20))) (let ((.def_272 (not .def_271))) (let ((.def_273 (or .def_272 .def_270))) (let ((.def_274 (or .def_273 .def_268))) (let ((.def_275 (not .def_274))) (let ((.def_276 (or .def_275 .def_265))) (let ((.def_277 (not .def_276))) (let ((.def_278 (and A21 .def_82))) (let ((.def_279 (or .def_233 .def_278))) (let ((.def_280 (or .def_145 A15))) (let ((.def_281 (= A4 .def_145))) (let ((.def_282 (not .def_281))) (let ((.def_283 (or .def_282 .def_280))) (let ((.def_284 (not .def_283))) (let ((.def_285 (or .def_284 .def_279))) (let ((.def_286 (or A17 .def_40))) (let ((.def_287 (or .def_87 .def_97))) (let ((.def_288 (or .def_287 .def_286))) (let ((.def_289 (or .def_16 .def_145))) (let ((.def_290 (not .def_289))) (let ((.def_291 (and A10 A14))) (let ((.def_292 (or .def_291 .def_290))) (let ((.def_293 (or .def_292 .def_288))) (let ((.def_294 (not .def_293))) (let ((.def_295 (and .def_294 .def_285))) (let ((.def_296 (and .def_295 .def_277))) (let ((.def_297 (and .def_296 .def_255))) (let ((.def_298 (or .def_32 .def_83))) (let ((.def_299 (not .def_298))) (let ((.def_300 (and .def_97 .def_56))) (let ((.def_301 (not .def_300))) (let ((.def_302 (and .def_301 .def_299))) (let ((.def_303 (not .def_302))) (let ((.def_304 (or .def_87 .def_224))) (let ((.def_305 (and .def_40 A2))) (let ((.def_306 (or .def_305 .def_304))) (let ((.def_307 (not .def_306))) (let ((.def_308 (and .def_307 .def_303))) (let ((.def_309 (not .def_308))) (let ((.def_310 (or A5 .def_148))) (let ((.def_311 (not .def_310))) (let ((.def_312 (and A18 .def_44))) (let ((.def_313 (and .def_312 .def_311))) (let ((.def_314 (or A7 A22))) (let ((.def_315 (or A2 A4))) (let ((.def_316 (or .def_315 .def_314))) (let ((.def_317 (= .def_316 .def_313))) (let ((.def_318 (not .def_317))) (let ((.def_319 (and .def_318 .def_309))) (let ((.def_320 (not .def_15))) (let ((.def_321 (or A16 A1))) (let ((.def_322 (not .def_321))) (let ((.def_323 (or .def_322 .def_320))) (let ((.def_324 (and .def_32 .def_62))) (let ((.def_325 (not .def_324))) (let ((.def_326 (and A11 .def_20))) (let ((.def_327 (not .def_326))) (let ((.def_328 (and .def_327 .def_325))) (let ((.def_329 (or .def_328 .def_323))) (let ((.def_330 (and A7 A20))) (let ((.def_331 (not .def_330))) (let ((.def_332 (or A22 .def_56))) (let ((.def_333 (and .def_332 .def_331))) (let ((.def_334 (and A19 .def_62))) (let ((.def_335 (not .def_334))) (let ((.def_336 (or A16 .def_83))) (let ((.def_337 (and .def_336 .def_335))) (let ((.def_338 (and .def_337 .def_333))) (let ((.def_339 (or .def_338 .def_329))) (let ((.def_340 (or .def_339 .def_319))) (let ((.def_341 (not .def_340))) (let ((.def_342 (and .def_56 A3))) (let ((.def_343 (and A20 .def_56))) (let ((.def_344 (not .def_343))) (let ((.def_345 (and .def_344 .def_342))) (let ((.def_346 (not .def_345))) (let ((.def_347 (and A0 .def_32))) (let ((.def_348 (and .def_40 .def_28))) (let ((.def_349 (not .def_348))) (let ((.def_350 (or .def_349 .def_347))) (let ((.def_351 (and .def_350 .def_346))) (let ((.def_352 (not .def_351))) (let ((.def_353 (and .def_9 A13))) (let ((.def_354 (= A0 .def_206))) (let ((.def_355 (not .def_354))) (let ((.def_356 (= .def_355 .def_353))) (let ((.def_357 (and .def_44 A16))) (let ((.def_358 (= .def_27 .def_16))) (let ((.def_359 (or .def_358 .def_357))) (let ((.def_360 (and .def_359 .def_356))) (let ((.def_361 (not .def_360))) (let ((.def_362 (or .def_361 .def_352))) (let ((.def_363 (not .def_362))) (let ((.def_364 (= A19 A0))) (let ((.def_365 (or A1 A14))) (let ((.def_366 (or .def_365 .def_364))) (let ((.def_367 (not .def_366))) (let ((.def_368 (or A22 A10))) (let ((.def_369 (not .def_368))) (let ((.def_370 (= .def_69 .def_5))) (let ((.def_371 (or .def_370 .def_369))) (let ((.def_372 (= .def_371 .def_367))) (let ((.def_373 (not .def_372))) (let ((.def_374 (or A13 .def_62))) (let ((.def_375 (and A18 .def_16))) (let ((.def_376 (or .def_375 .def_374))) (let ((.def_377 (not .def_376))) (let ((.def_378 (or A19 A7))) (let ((.def_379 (or A21 .def_56))) (let ((.def_380 (not .def_379))) (let ((.def_381 (or .def_380 .def_378))) (let ((.def_382 (not .def_381))) (let ((.def_383 (and .def_382 .def_377))) (let ((.def_384 (not .def_383))) (let ((.def_385 (and .def_384 .def_373))) (let ((.def_386 (not .def_385))) (let ((.def_387 (or .def_386 .def_363))) (let ((.def_388 (not .def_387))) (let ((.def_389 (and .def_388 .def_341))) (let ((.def_390 (not .def_389))) (let ((.def_391 (and .def_390 .def_297))) (let ((.def_392 (= .def_391 .def_204))) (let ((.def_393 (not .def_392))) .def_393)))))))))))))))))))))))))))))))))))))))))))))))))))))))))))))))))))))))))))))))))))))))))))))))))))))))))))))))))))))))))))))))))))))))))))))))))))))))))))))))))))))))))))))))))))))))))))))))))))))))))))))))))))))))))))))))))))))))))))))))))))))))))))))))))))))))))))))))))))))))))))))))))))))))))))))))))))))))))))))))))))))))))))))))))))))))))))))))))))))))))))))))))))))))))))))))))))))))))))
(check-sat)
